C101

VEHICLE
NUMBER     CAPACITY
  1         40

CUSTOMER
CUST NO.  XCOORD.   YCOORD.    DEMAND   READY TIME  DUE DATE   SERVICE   TIME
 
    0       0         20          0          0        500          0   
    1      20         20         10          0        100          0   
    2      40         50         10          0        50           0    
    3      80          0         10          0        200          0  